letting n = 10
letting board=[[4, 4, 9, 9, 9, 0, 0, 2, 2, 2], [4, 4, 4, 9, 0, 0, 0, 2, 6, 2], [4, 4, 4, 9, 9, 0, 0, 2, 2, 2], [4, 4, 4, 9, 0, 0, 0, 2, 5, 2], [4, 4, 9, 9, 9, 0, 0, 2, 5, 2], [4, 1, 1, 1, 8, 7, 3, 7, 5, 5], [4, 1, 1, 8, 8, 7, 3, 7, 5, 5], [4, 1, 1, 1, 8, 7, 7, 7, 5, 5], [4, 4, 4, 1, 8, 8, 7, 5, 5, 5], [4, 1, 1, 1, 8, 8, 7, 5, 5, 5]]
